Total weight: 1357.5
Route 1: 0 83 57 52 86 87 9 10 13 16 17 0 
Route 2: 0 69 55 0 
Route 3: 0 39 36 35 38 41 61 68 0 
Route 4: 0 90 65 91 94 95 56 66 0 
Route 5: 0 42 44 43 40 37 72 54 81 0 
Route 6: 0 12 14 47 15 11 53 98 82 0 
Route 7: 0 22 21 23 49 19 18 48 24 64 0 
Route 8: 0 88 78 73 79 7 2 100 0 
Route 9: 0 84 85 63 89 76 51 20 0 
Route 10: 0 99 74 97 59 75 58 77 25 0 
Route 11: 0 60 45 46 8 6 4 5 3 1 70 0 
Route 12: 0 28 26 27 29 31 34 50 67 80 0 
Route 13: 0 92 62 33 32 30 71 93 96 0 
